%chk=Zp_p_prod.18aug.chk
%mem=8GB
%nproc=4
#p oniom(b3lyp/6-31+g(d):mndo) scf=tight opt freq(noraman) int=grid=ultrafine iop(2/16=1)

no comment

0 1
O		1.185348	-0.076231	-0.137188	H
Al		1.757039	0.408289	1.421377	H
O		3.463108	0.404678	1.650363	H
Si		4.64133	-0.553625	2.246876	H
O		4.615959	-0.583817	3.909943	L H
Si		4.591137	-0.55754	5.513976	L
O		3.229063	0.153847	6.019031	L
Si		1.679758	0.547168	6.260709	L
O		1.546477	2.154554	6.318698	L
Si		2.101594	3.481187	5.599219	L
O		2.181766	3.136707	4.033324	L H
Si		1.969861	3.304429	2.392056	H
O		3.443082	3.848833	1.826086	L H
Si		5.013894	4.128713	1.592402	L
O		5.208658	4.434089	0.003592	L
Si		5.04075	4.109647	-1.576266	L
O		5.857447	2.75248	-1.907279	L
Si		6.838879	1.521181	-1.524095	L
O		6.071638	0.118459	-1.719627	L H
Si		4.640042	-0.556429	-2.179756	H
O		4.580399	-0.5507	-3.838644	L H
Si		4.619314	-0.593255	-5.445731	L
O		3.248482	0.101781	-5.956827	L
Si		1.713785	0.499829	-6.264843	L
O		0.790812	-0.021707	-5.055013	L H
Si		0.536793	-1.149968	-3.887795	H
O		1.361046	-0.699914	-2.570406	H
Si		1.844932	0.398718	-1.489956	H
O		3.472348	0.444782	-1.549484	H
O		1.318653	1.915901	-1.811799	H
Si		2.018545	3.274622	-2.430077	H
O		0.836673	4.507917	-2.24555	L H
Si		0.523478	5.990164	-1.707698	L
O		0.812604	6.089873	-0.122742	L
Si		0.481218	6.072898	1.462439	L
O		-1.10456	6.30101	1.641012	L
Si		-2.427546	6.967413	2.229356	L
O		-3.680012	6.073685	1.769403	L
Si		-5.21521	5.821298	1.364703	L
O		-5.311332	5.42102	-0.179008	L
Si		-5.173286	5.760806	-1.733215	L
O		-3.625739	5.991113	-2.106897	L
Si		-2.366973	6.867604	-2.58101	L
O		-1.050238	6.218091	-1.959251	L
O		3.350908	3.844973	-1.874147	L H
O		2.14238	3.098943	-4.112185	L H
Si		2.05829	3.404558	-5.684636	L
O		1.558085	2.041515	-6.37143	L
O		7.146288	1.970677	0.028474	L
Si		6.757651	1.806522	1.586631	L
O		5.716728	3.006525	1.903033	L
O		6.093067	0.361748	1.828356	L H
O		4.705538	-1.936785	1.793725	L H
Si		4.320516	-3.489096	1.646449	L
O		3.96903	-3.814562	0.105929	L
Si		4.34731	-3.5492	-1.43208	L
O		4.691145	-1.987927	-1.638157	L H
O		2.993804	-3.674404	2.540836	L
Si		2.134748	-3.766593	3.89097	L
O		3.216105	-3.970891	5.079779	L
Si		4.204497	-3.426738	6.228262	L
O		4.538017	-1.870125	5.971496	L
O		1.290753	-2.468677	4.357815	L H
Si		0.541773	-1.070825	3.852475	H
O		1.064111	-0.782286	2.355862	H
O		1.126396	-5.017727	3.805022	L
Si		0.403102	-6.205796	4.601802	L
O		-1.121552	-6.270251	4.094527	L
Si		-2.439493	-5.373487	3.897694	L
O		-2.047598	-3.809559	3.969615	L
Si		-2.22911	-2.284519	4.475745	L
O		-1.085742	-1.346542	3.878728	L H
O		0.854597	0.104775	4.968383	L H
O		0.788665	4.649891	2.120187	L H
O		1.14004	2.076515	1.663658	H
O		-5.790998	4.614764	2.252023	L
Si		-6.357138	4.186628	3.685712	L
O		-6.132255	2.607313	3.823843	L
Si		-6.662885	1.19365	4.358354	L
O		-5.504225	0.113728	4.106064	L
Si		-5.184056	-1.44379	3.855035	L
O		-5.747903	-1.845287	2.393405	L
Si		-6.164809	-3.139795	1.532367	L
O		-5.885887	-2.894982	-0.033308	L
Si		-6.172813	-3.226391	-1.581282	L
O		-5.265427	-4.512873	-1.97973	L
Si		-4.419143	-5.825712	-1.521797	L
O		-4.155014	-5.676168	0.051226	L
Si		-4.448937	-5.766054	1.624986	L
O		-5.286337	-4.4219	2.001305	L
O		-3.61989	-1.741803	3.880677	L
O		3.032858	-3.751178	-2.347332	L
Si		2.211734	-3.921753	-3.711419	L
O		1.210962	-5.172187	-3.594263	L
Si		0.498468	-6.385403	-4.365201	L
O		-1.034905	-6.423074	-3.886847	L
Si		-2.355119	-5.515236	-3.761295	L
O		-1.953272	-3.956082	-3.898402	L
Si		-2.12455	-2.441789	-4.433115	L
O		-3.535792	-1.885394	-3.912147	L
Si		-5.105466	-1.598789	-3.928104	L
O		-5.40891	-0.048913	-4.238167	L
Si		-6.561369	1.017988	-4.568625	L
O		-6.040778	2.450479	-4.078141	L
Si		-6.266993	4.034376	-4.01048	L
O		-5.725045	4.518602	-2.586258	L
O		3.323663	-4.154077	-4.864987	L
Si		4.338112	-3.661279	-6.0128	L
O		4.659531	-2.092315	-5.789905	L
O		1.357851	-2.655183	-4.256583	L H
O		-3.086076	-5.717841	2.465297	L
O		-5.744671	-1.968834	-2.491843	L
O		-1.002086	-1.501536	-3.758083	L H
O		-3.036963	-5.790174	-2.332897	L
H	-1	-7.471049	-3.442143	1.732336	L
H	-1	5.321345	5.387457	2.289806	L
H	-1	1.015017	-7.352937	4.320404	L
H	-1	0.38373	-5.884371	5.93499	L
H	-1	-3.319124	-5.629355	4.912931	L
H	-1	-5.169825	-6.897106	1.887991	L
H	-1	0.511346	-6.095558	-5.706677	L
H	-1	1.111811	-7.51743	-4.034972	L
H	-1	-3.2061	-5.814577	-4.786565	L
H	-1	-5.125981	-6.969546	-1.757398	L
H	-1	-7.47594	-3.567831	-1.779516	L
H	-1	1.216678	6.919694	-2.440807	L
H	-1	-2.458675	8.13518	-2.06475	L
H	-1	-2.350889	6.908773	-3.952427	L
H	-1	-5.860035	6.913825	-2.036045	L
H	-1	-5.594723	4.674717	-5.013378	L
H	-1	-7.750652	0.695903	-3.950654	L
H	-1	-6.744964	1.082532	-5.922577	L
H	-1	-5.682628	-2.395535	-4.879719	L
H	-1	-2.098521	-2.463938	-5.811056	L
H	-1	-5.799585	-2.202848	4.818241	L
H	-1	-6.883727	1.312002	5.700569	L
H	-1	-7.834778	0.848021	3.720812	L
H	-1	-7.695638	4.465828	3.701614	L
H	-1	-5.711952	4.871612	4.676795	L
H	-1	-5.905327	6.983385	1.601431	L
H	-1	-2.445565	7.076408	3.597156	L
H	-1	-2.506511	8.203674	1.64758	L
H	-1	1.154982	7.033289	2.151604	L
H	-1	1.038045	4.605419	5.799072	L
H	-1	3.172752	3.890967	6.041429	L
H	-1	-7.606515	4.315567	-4.074723	L
H	-1	-2.249916	-2.249694	5.836319	L
H	-1	1.151223	0.180615	7.385956	L
H	-1	5.632146	0.392035	6.066683	L
H	-1	5.334494	-4.171896	6.11323	L
H	-1	3.568962	-3.561867	7.428945	L
H	-1	5.402239	-4.24315	2.014376	L
H	-1	7.834612	1.847298	2.349479	L
H	-1	7.870413	1.745594	-2.293206	L
H	-1	5.355787	5.281945	-2.429653	L
H	-1	3.313704	3.626978	-6.128573	L
H	-1	1.162773	4.364831	-5.969171	L
H	-1	1.304434	-0.120584	-7.373075	L
H	-1	5.756883	0.164242	-5.964045	L
H	-1	3.716973	-3.83855	-7.219472	L
H	-1	5.464468	-4.407067	-5.847264	L
H	-1	5.442313	-4.306094	-1.777053	L
C		-1.041292	0.528831	-0.086943	H
C		-1.520996	-0.692448	0.588487	H
C		-3.238809	1.633178	-0.424715	H
C		-2.611287	2.413616	0.485327	H
C		-2.674254	2.259313	1.971619	H
C		-2.040644	-1.806162	-0.312078	H
H		-1.016243	0.62567	-1.165147	H
H		-0.593457	1.338835	0.470578	H
H		-2.251966	-0.407664	1.35488	H
H		-0.652154	-1.039202	1.165732	H
H		-2.889411	-1.478998	-0.921611	H
H		-2.365995	-2.655263	0.29625	H
H		-1.245259	-2.16305	-0.972267	H
H		-3.183283	1.851722	-1.487819	H
H		-3.901424	0.825106	-0.124192	H
H		-1.991859	3.231133	0.117053	H
H		-1.668909	2.106031	2.385254	H
H		-3.049225	3.180026	2.431374	H
H		-3.322	1.434386	2.276505	H

--Link1--
%chk=Zp_p_prod.18aug.chk
%mem=8GB
%nproc=4
#p oniom(b3lyp/6-31+g(d):hf/6-31+g(d)) geom(allcheck) scf=tight int=grid=ultrafine iop(2/16=1)

no comment

0 1

