 Comment
   1.00000000000000
    15.0000000000000000    0.0000000000000000    0.0000000000000000
     0.0000000000000009   15.0000000000000000    0.0000000000000000
     0.0000000000000009    0.0000000000000009   15.0000000000000000
   C    H
     1     4
Direct
  0.4772282905289994  0.5091393561475995  0.5367490853923054
  0.4467795104586839  0.5696719518369610  0.5628519235165090
  0.4472519051993725  0.4502685943585165  0.5667469772755069
  0.5494566783315190  0.5097549338342183  0.5463934775537378
  0.4654040667480883  0.5068873456893698  0.4635954888619516

  0.00000000E+00  0.00000000E+00  0.00000000E+00
  0.00000000E+00  0.00000000E+00  0.00000000E+00
  0.00000000E+00  0.00000000E+00  0.00000000E+00
  0.00000000E+00  0.00000000E+00  0.00000000E+00
  0.00000000E+00  0.00000000E+00  0.00000000E+00
