 C H
   1.00000000000000
    15.0000000000000000    0.0000000000000000    0.0000000000000000
     0.0000000000000009   15.0000000000000000    0.0000000000000000
     0.0000000000000009    0.0000000000000009   15.0000000000000000
   C    H
     1     4
Selective dynamics
Direct
  0.4771880526959853  0.5091679792932715  0.5353267962275144   T   T   T
  0.4476002080913056  0.5693129708331878  0.5643113252594012   T   T   T
  0.4465656157724281  0.4506728072951284  0.5665732546605844   T   T   T
  0.5493065653256056  0.5108653088667484  0.5468245224141043   T   T   T
  0.4654600093813301  0.5057031155783288  0.4633010540384130   T   T   T

  0.00000000E+00  0.00000000E+00  0.00000000E+00
  0.00000000E+00  0.00000000E+00  0.00000000E+00
  0.00000000E+00  0.00000000E+00  0.00000000E+00
  0.00000000E+00  0.00000000E+00  0.00000000E+00
  0.00000000E+00  0.00000000E+00  0.00000000E+00
